345 5
10 10 10 10 10 

0 0 0 0 0 0 5 2 14 26 38 50 
0 0 0 0 0 0 1 3 
8 0 0 1 0 0 4 12 11 10 4 
5 0 0 5 0 0 1 5 
6 0 0 9 0 0 3 9 8 6 
10 0 0 3 0 0 1 7 
4 0 0 4 0 0 1 13 
6 0 0 7 0 0 1 13 
2 0 0 4 0 0 1 13 
9 0 0 6 0 0 2 13 151 
5 0 0 4 0 0 1 13 
1 0 0 7 0 0 1 13 
0 0 0 0 0 0 1 62 
0 0 0 0 0 0 3 15 16 24 
2 0 0 0 0 1 3 20 17 249 
6 0 0 0 0 2 2 23 18 
2 0 0 0 0 5 1 18 
7 0 0 0 0 7 1 19 
9 0 0 0 0 4 1 21 
1 0 0 0 0 6 1 22 
8 0 0 0 0 9 1 25 
1 0 0 0 0 4 1 25 
6 0 0 0 0 6 1 25 
4 0 0 0 0 6 1 25 
0 0 0 0 0 0 1 62 
0 0 0 0 0 0 2 27 28 
1 1 0 0 0 0 2 32 29 
1 4 0 0 0 0 2 32 29 
10 5 0 0 0 0 2 31 30 
2 6 0 0 0 0 2 36 33 
9 4 0 0 0 0 2 36 33 
5 7 0 0 0 0 2 36 33 
6 6 0 0 0 0 2 35 34 
8 5 0 0 0 0 1 37 
5 8 0 0 0 0 2 37 93 
10 4 0 0 0 0 1 37 
0 0 0 0 0 0 1 62 
0 0 0 0 0 0 4 39 40 42 45 
2 0 1 0 0 0 1 41 
6 0 4 0 0 0 1 41 
7 0 9 0 0 0 4 48 47 43 85 
4 0 4 0 0 0 3 48 47 43 
6 0 6 0 0 0 1 44 
10 0 6 0 0 0 1 46 
6 0 5 0 0 0 1 47 
8 0 4 0 0 0 1 49 
7 0 5 0 0 0 1 49 
10 0 6 0 0 0 1 49 
0 0 0 0 0 0 1 62 
0 0 0 0 0 0 1 51 
3 0 0 0 1 0 3 53 52 93 
6 0 0 0 5 0 3 56 55 54 
5 0 0 0 3 0 2 56 54 
6 0 0 0 7 0 3 59 58 57 
7 0 0 0 3 0 3 59 58 57 
7 0 0 0 9 0 2 58 57 
7 0 0 0 5 0 1 60 
3 0 0 0 4 0 1 60 
3 0 0 0 4 0 1 60 
4 0 0 0 9 0 1 61 
0 0 0 0 0 0 1 62 
0 0 0 0 0 0 5 63 75 87 99 111 
0 0 0 0 0 0 5 64 68 69 72 73 
2 0 0 4 0 0 1 65 
7 0 0 3 0 0 1 66 
3 0 0 3 0 0 2 71 67 
7 0 0 5 0 0 2 70 109 
10 0 0 2 0 0 1 70 
1 0 0 10 0 0 1 70 
2 0 0 6 0 0 1 74 
8 0 0 5 0 0 1 74 
5 0 0 6 0 0 1 74 
9 0 0 6 0 0 1 74 
0 0 0 0 0 0 1 123 
0 0 0 0 0 0 2 76 80 
2 0 1 0 0 0 2 85 77 
1 0 6 0 0 0 4 84 83 82 78 
8 0 7 0 0 0 2 79 317 
7 0 6 0 0 0 1 81 
5 0 6 0 0 0 1 81 
4 0 5 0 0 0 1 86 
5 0 4 0 0 0 1 86 
3 0 6 0 0 0 1 86 
9 0 3 0 0 0 1 86 
2 0 6 0 0 0 1 86 
0 0 0 0 0 0 1 123 
0 0 0 0 0 0 3 88 92 94 
10 0 0 0 0 1 2 91 89 
6 0 0 0 0 3 1 90 
3 0 0 0 0 3 3 97 96 93 
7 0 0 0 0 6 3 97 96 93 
4 0 0 0 0 9 2 96 95 
7 0 0 0 0 8 1 95 
6 0 0 0 0 5 1 95 
1 0 0 0 0 7 2 98 155 
4 0 0 0 0 2 1 98 
10 0 0 0 0 6 1 98 
0 0 0 0 0 0 1 123 
0 0 0 0 0 0 3 100 101 103 
8 1 0 0 0 0 2 104 102 
4 4 0 0 0 0 1 102 
7 8 0 0 0 0 3 109 107 105 
8 4 0 0 0 0 2 109 104 
10 4 0 0 0 0 2 107 106 
8 4 0 0 0 0 1 106 
4 6 0 0 0 0 1 108 
2 6 0 0 0 0 1 108 
4 8 0 0 0 0 2 110 125 
6 5 0 0 0 0 1 110 
0 0 0 0 0 0 1 123 
0 0 0 0 0 0 3 112 114 118 
5 0 0 0 1 0 2 121 113 
4 0 0 0 4 0 3 120 117 115 
2 0 0 0 5 0 3 121 120 119 
5 0 0 0 9 0 1 116 
4 0 0 0 5 0 1 119 
3 0 0 0 6 0 1 119 
5 0 0 0 7 0 2 120 216 
8 0 0 0 1 0 1 122 
10 0 0 0 7 0 1 122 
7 0 0 0 5 0 1 122 
0 0 0 0 0 0 1 123 
0 0 0 0 0 0 5 124 136 148 160 172 
0 0 0 0 0 0 3 125 126 127 
5 0 0 0 1 0 2 129 128 
9 0 0 0 5 0 3 134 130 129 
10 0 0 0 6 0 2 128 146 
5 0 0 0 5 0 3 134 132 130 
7 0 0 0 6 0 2 132 131 
10 0 0 0 5 0 1 131 
1 0 0 0 3 0 1 133 
8 0 0 0 4 0 1 133 
2 0 0 0 5 0 1 135 
3 0 0 0 10 0 1 135 
0 0 0 0 0 0 1 184 
0 0 0 0 0 0 2 137 138 
5 1 0 0 0 0 2 142 140 
7 5 0 0 0 0 1 139 
10 4 0 0 0 0 1 140 
9 5 0 0 0 0 2 143 141 
7 4 0 0 0 0 4 146 145 144 169 
9 8 0 0 0 0 2 145 143 
3 8 0 0 0 0 1 144 
9 4 0 0 0 0 1 147 
4 7 0 0 0 0 1 147 
5 4 0 0 0 0 1 147 
0 0 0 0 0 0 1 184 
0 0 0 0 0 0 3 149 151 152 
4 0 0 1 0 0 3 155 154 150 
8 0 0 4 0 0 1 153 
2 0 0 5 0 0 1 153 
6 0 0 5 0 0 1 153 
9 0 0 6 0 0 2 158 156 
10 0 0 10 0 0 2 158 156 
1 0 0 6 0 0 2 158 156 
6 0 0 6 0 0 1 157 
6 0 0 3 0 0 1 159 
10 0 0 4 0 0 1 159 
0 0 0 0 0 0 1 184 
0 0 0 0 0 0 4 161 162 163 168 
6 0 0 1 0 0 2 166 165 
3 0 0 8 0 0 1 164 
9 0 0 3 0 0 1 164 
8 0 0 5 0 0 1 165 
5 0 0 6 0 0 2 170 167 
2 0 0 6 0 0 2 170 167 
6 0 0 7 0 0 1 169 
9 0 0 5 0 0 1 169 
5 0 0 4 0 0 1 171 
1 0 0 5 0 0 1 171 
0 0 0 0 0 0 1 184 
0 0 0 0 0 0 2 173 174 
9 0 1 0 0 0 3 178 176 175 
1 0 5 0 0 0 1 175 
10 0 10 0 0 0 3 182 180 179 
3 0 4 0 0 0 1 177 
5 0 3 0 0 0 2 180 179 
3 0 5 0 0 0 2 182 180 
1 0 5 0 0 0 1 181 
2 0 3 0 0 0 1 183 
1 0 4 0 0 0 1 183 
7 0 10 0 0 0 1 183 
0 0 0 0 0 0 1 184 
0 0 0 0 0 0 5 185 207 229 241 263 
0 0 0 0 0 0 1 186 
4 0 0 1 0 1 1 187 
9 0 0 2 0 4 2 189 188 
9 0 0 7 0 5 1 190 
3 0 0 7 0 7 1 190 
10 0 0 3 0 7 1 191 
3 0 0 3 0 8 2 193 192 
7 0 0 5 0 7 1 194 
1 0 0 5 0 5 1 194 
2 0 0 4 0 2 5 199 198 197 196 195 
10 0 0 4 0 2 5 204 203 202 201 200 
5 0 0 7 0 6 5 204 203 202 201 200 
4 0 0 4 0 8 5 204 203 202 201 200 
9 0 0 6 0 3 5 204 203 202 201 200 
7 0 0 4 0 3 5 204 203 202 201 200 
7 0 0 8 0 8 1 205 
10 0 0 9 0 6 1 205 
6 0 0 4 0 5 1 205 
9 0 0 7 0 7 1 205 
3 0 0 2 0 3 1 205 
10 0 0 8 0 3 1 206 
0 0 0 0 0 0 1 345 
0 0 0 0 0 0 8 208 221 222 223 224 225 226 227 
1 0 1 0 0 1 1 209 
6 0 2 0 0 5 4 220 219 218 210 
7 0 8 0 0 5 1 211 
8 0 8 0 0 8 1 212 
7 0 1 0 0 5 1 213 
1 0 3 0 0 3 1 214 
9 0 5 0 0 3 1 215 
2 0 3 0 0 8 1 216 
6 0 7 0 0 5 1 217 
5 0 4 0 0 2 1 228 
7 0 5 0 0 5 1 228 
5 0 6 0 0 7 1 228 
7 0 5 0 0 8 1 228 
7 0 8 0 0 8 1 228 
6 0 6 0 0 6 1 228 
4 0 6 0 0 5 1 228 
6 0 2 0 0 5 1 228 
6 0 7 0 0 4 1 228 
4 0 8 0 0 4 1 228 
4 0 5 0 0 3 1 228 
0 0 0 0 0 0 1 345 
0 0 0 0 0 0 2 230 232 
4 0 1 0 0 0 2 234 231 
8 0 5 0 0 0 3 239 236 233 
9 0 6 0 0 0 3 239 238 237 
6 0 8 0 0 0 2 238 235 
5 0 9 0 0 0 2 238 237 
10 0 3 0 0 0 1 237 
5 0 4 0 0 0 1 237 
10 0 5 0 0 0 1 240 
10 0 6 0 0 0 1 240 
3 0 3 0 0 0 1 240 
0 0 0 0 0 0 5 285 297 309 321 333 
0 0 0 0 0 0 4 242 247 248 261 
4 1 0 0 1 0 2 254 243 
8 6 0 0 7 0 2 260 244 
10 4 0 0 4 0 4 259 258 252 245 
8 5 0 0 6 0 2 256 246 
7 5 0 0 3 0 2 257 249 
9 2 0 0 2 0 3 256 254 253 
9 7 0 0 6 0 2 256 251 
8 5 0 0 4 0 1 250 
1 5 0 0 6 0 1 251 
9 4 0 0 7 0 1 253 
8 6 0 0 6 0 1 253 
9 4 0 0 5 0 1 255 
2 2 0 0 6 0 1 255 
5 6 0 0 8 0 1 262 
10 8 0 0 5 0 1 262 
1 7 0 0 4 0 1 262 
7 7 0 0 5 0 1 262 
9 8 0 0 5 0 1 262 
1 3 0 0 5 0 1 262 
1 5 0 0 5 0 1 262 
0 0 0 0 0 0 1 345 
0 0 0 0 0 0 1 264 
6 1 1 0 0 0 1 265 
10 7 4 0 0 0 2 267 266 
1 4 9 0 0 0 1 268 
8 6 4 0 0 0 1 268 
8 3 6 0 0 0 1 269 
3 9 5 0 0 0 2 271 270 
1 8 7 0 0 0 2 274 272 
8 5 6 0 0 0 1 272 
8 4 3 0 0 0 4 277 276 275 273 
5 7 6 0 0 0 5 283 282 280 279 278 
4 7 5 0 0 0 5 283 282 280 279 278 
3 8 6 0 0 0 4 283 282 279 278 
7 5 7 0 0 0 4 282 280 279 278 
6 3 3 0 0 0 2 283 282 
1 3 3 0 0 0 1 281 
9 4 3 0 0 0 1 281 
6 5 8 0 0 0 1 281 
3 3 6 0 0 0 1 284 
10 4 3 0 0 0 1 284 
10 4 5 0 0 0 1 284 
0 0 0 0 0 0 1 345 
0 0 0 0 0 0 4 286 287 294 295 
1 0 0 0 1 0 3 293 292 288 
6 0 0 0 9 0 2 292 290 
3 0 0 0 4 0 1 289 
4 0 0 0 5 0 1 290 
8 0 0 0 8 0 1 291 
3 0 0 0 4 0 1 296 
9 0 0 0 5 0 1 296 
7 0 0 0 5 0 1 296 
8 0 0 0 7 0 1 296 
6 0 0 0 2 0 1 296 
0 0 0 0 0 0 1 345 
0 0 0 0 0 0 5 298 300 302 304 307 
8 0 0 3 0 0 2 306 299 
2 0 0 5 0 0 1 301 
2 0 0 5 0 0 1 301 
10 0 0 3 0 0 1 303 
5 0 0 3 0 0 1 303 
6 0 0 5 0 0 1 305 
4 0 0 7 0 0 1 306 
1 0 0 5 0 0 1 308 
5 0 0 4 0 0 1 308 
2 0 0 10 0 0 1 308 
0 0 0 0 0 0 1 345 
0 0 0 0 0 0 2 310 312 
10 1 0 0 0 0 2 315 311 
7 4 0 0 0 0 2 318 313 
10 4 0 0 0 0 2 319 315 
10 7 0 0 0 0 1 314 
7 6 0 0 0 0 2 317 316 
4 7 0 0 0 0 2 317 316 
2 5 0 0 0 0 1 320 
9 7 0 0 0 0 1 320 
2 5 0 0 0 0 1 320 
10 4 0 0 0 0 1 320 
0 0 0 0 0 0 1 345 
0 0 0 0 0 0 3 322 323 325 
7 0 0 0 1 0 2 326 324 
9 0 0 0 5 0 3 331 330 328 
7 0 0 0 5 0 2 330 327 
7 0 0 0 7 0 1 326 
5 0 0 0 4 0 1 328 
1 0 0 0 5 0 1 328 
5 0 0 0 5 0 1 329 
9 0 0 0 3 0 1 332 
5 0 0 0 7 0 1 332 
7 0 0 0 8 0 1 332 
0 0 0 0 0 0 1 345 
0 0 0 0 0 0 2 334 335 
9 1 0 0 0 0 1 336 
7 6 0 0 0 0 1 336 
9 3 0 0 0 0 2 339 337 
8 6 0 0 0 0 4 343 342 341 338 
6 3 0 0 0 0 1 340 
4 5 0 0 0 0 1 340 
7 6 0 0 0 0 1 344 
1 8 0 0 0 0 1 344 
2 5 0 0 0 0 1 344 
4 7 0 0 0 0 1 344 
0 0 0 0 0 0 1 345 
0 0 0 0 0 0 0 
